number of jobs, number of machines, initial seed, upper bound and lower bound :
          5           5   873654221        1278        1232
processing times :
6  7  8  9  10
11 12 13 14 15
21 22 23 24 25
1  2  3  4  5
16 17 18 19 20